126	178
126.1	178
126.2	178
126.3	178.01
126.4	178.02
126.5	178.03
126.6	178.06
126.7	178.09
126.8	178.13
126.9	178.17
127	178.23
127.1	178.3
127.2	178.38
127.3	178.47
127.4	178.57
127.5	178.68
127.6	178.8
127.7	178.94
127.8	179.08
127.9	179.23
128	179.4
128.1	179.57
128.2	179.76
128.3	179.95
128.4	180.15
128.5	180.36
128.6	180.58
128.7	180.81
128.8	181.04
128.9	181.28
129	181.52
129.1	181.77
129.2	182.03
129.3	182.29
129.4	182.55
129.5	182.82
129.6	183.09
129.7	183.36
129.8	183.64
129.9	183.91
130	184.19
130.1	184.47
130.2	184.75
130.3	185.03
130.4	185.31
130.5	185.59
130.6	185.87
130.7	186.14
130.8	186.42
130.9	186.69
131	186.96
131.1	187.23
131.2	187.5
131.3	187.77
131.4	188.03
131.5	188.29
131.6	188.55
131.7	188.8
131.8	189.05
131.9	189.3
132	189.55
132.1	189.79
132.2	190.03
132.3	190.27
132.4	190.5
132.5	190.73
132.6	190.96
132.7	191.19
132.8	191.41
132.9	191.63
133	191.85
133.1	192.06
133.2	192.28
133.3	192.49
133.4	192.69
133.5	192.9
133.6	193.1
133.7	193.31
133.8	193.51
133.9	193.7
134	193.9
134.1	194.09
134.2	194.29
134.3	194.48
134.4	194.67
134.5	194.86
134.6	195.05
134.7	195.24
134.8	195.42
134.9	195.61
135	195.79
135.1	195.98
135.2	196.16
135.3	196.35
135.4	196.53
135.5	196.71
135.6	196.9
135.7	197.08
135.8	197.26
135.9	197.45
136	197.63
136.1	197.81
136.2	198
136.3	198.18
136.4	198.36
136.5	198.55
136.6	198.73
136.7	198.92
136.8	199.1
136.9	199.29
137	199.47
137.1	199.66
137.2	199.84
137.3	200.03
137.4	200.22
137.5	200.41
137.6	200.6
137.7	200.78
137.8	200.97
137.9	201.16
138	201.35
138.1	201.54
138.2	201.73
138.3	201.93
138.4	202.12
138.5	202.31
138.6	202.5
138.7	202.69
138.8	202.89
138.9	203.08
139	203.28
139.1	203.47
139.2	203.66
139.3	203.86
139.4	204.05
139.5	204.25
139.6	204.44
139.7	204.64
139.8	204.84
139.9	205.03
140	205.23
140.1	205.42
140.2	205.62
140.3	205.82
140.4	206.01
140.5	206.21
140.6	206.41
140.7	206.6
140.8	206.8
140.9	207
141	207.19
141.1	207.39
141.2	207.59
141.3	207.78
141.4	207.98
141.5	208.18
141.6	208.37
141.7	208.57
141.8	208.77
141.9	208.96
142	209.16
142.1	209.36
142.2	209.55
142.3	209.75
142.4	209.95
142.5	210.14
142.6	210.34
142.7	210.53
142.8	210.73
142.9	210.93
143	211.12
143.1	211.32
143.2	211.51
143.3	211.71
143.4	211.9
143.5	212.1
143.6	212.3
143.7	212.49
143.8	212.69
143.9	212.88
144	213.08
144.1	213.27
144.2	213.47
144.3	213.66
144.4	213.86
144.5	214.05
144.6	214.25
144.7	214.44
144.8	214.64
144.9	214.83
145	215.03
145.1	215.22
145.2	215.41
145.3	215.61
145.4	215.8
145.5	216
145.6	216.19
145.7	216.39
145.8	216.58
145.9	216.78
146	216.97
146.1	217.17
146.2	217.36
146.3	217.56
146.4	217.75
146.5	217.94
146.6	218.14
146.7	218.33
146.8	218.53
146.9	218.72
147	218.92
147.1	219.11
147.2	219.31
147.3	219.5
147.4	219.69
147.5	219.89
147.6	220.08
147.7	220.28
147.8	220.47
147.9	220.67
148	220.86
148.1	221.06
148.2	221.25
148.3	221.45
148.4	221.64
148.5	221.84
148.6	222.03
148.7	222.23
148.8	222.42
148.9	222.61
149	222.81
149.1	223
149.2	223.2
149.3	223.39
149.4	223.59
149.5	223.78
149.6	223.98
149.7	224.17
149.8	224.37
149.9	224.56
150	224.76
150.1	224.95
150.2	225.15
150.3	225.34
150.4	225.54
150.5	225.73
150.6	225.93
150.7	226.12
150.8	226.32
150.9	226.51
151	226.71
151.1	226.9
151.2	227.1
151.3	227.29
151.4	227.49
151.5	227.68
151.6	227.88
151.7	228.07
151.8	228.26
151.9	228.46
152	228.65
152.1	228.85
152.2	229.04
152.3	229.24
152.4	229.43
152.5	229.63
152.6	229.82
152.7	230.02
152.8	230.21
152.9	230.41
153	230.6
153.1	230.8
153.2	230.99
153.3	231.19
153.4	231.38
153.5	231.58
153.6	231.77
153.7	231.97
153.8	232.16
153.9	232.36
154	232.55
154.1	232.75
154.2	232.94
154.3	233.14
154.4	233.33
154.5	233.53
154.6	233.72
154.7	233.92
154.8	234.11
154.9	234.31
155	234.5
155.1	234.7
155.2	234.89
155.3	235.08
155.4	235.28
155.5	235.47
155.6	235.67
155.7	235.86
155.8	236.06
155.9	236.25
156	236.45
156.1	236.64
156.2	236.84
156.3	237.03
156.4	237.23
156.5	237.42
156.6	237.62
156.7	237.81
156.8	238.01
156.9	238.2
157	238.4
157.1	238.59
157.2	238.79
157.3	238.98
157.4	239.18
157.5	239.37
157.6	239.57
157.7	239.76
157.8	239.96
157.9	240.15
158	240.34
158.1	240.54
158.2	240.73
158.3	240.93
158.4	241.12
158.5	241.32
158.6	241.51
158.7	241.71
158.8	241.9
158.9	242.1
159	242.29
159.1	242.49
159.2	242.68
159.3	242.88
159.4	243.07
159.5	243.27
159.6	243.46
159.7	243.66
159.8	243.85
159.9	244.05
160	244.24
160.1	244.44
160.2	244.63
160.3	244.83
160.4	245.02
160.5	245.22
160.6	245.41
160.7	245.61
160.8	245.8
160.9	245.99
161	246.19
161.1	246.38
161.2	246.58
161.3	246.77
161.4	246.97
161.5	247.16
161.6	247.36
161.7	247.55
161.8	247.75
161.9	247.94
162	248.14
162.1	248.33
162.2	248.53
162.3	248.72
162.4	248.92
162.5	249.11
162.6	249.31
162.7	249.5
162.8	249.7
162.9	249.89
163	250.09
163.1	250.28
163.2	250.48
163.3	250.67
163.4	250.87
163.5	251.06
163.6	251.26
163.7	251.45
163.8	251.64
163.9	251.84
164	252.03
164.1	252.23
164.2	252.42
164.3	252.62
164.4	252.81
164.5	253.01
164.6	253.2
164.7	253.4
164.8	253.59
164.9	253.79
165	253.98
165.1	254.18
165.2	254.37
165.3	254.57
165.4	254.76
165.5	254.96
165.6	255.15
165.7	255.35
165.8	255.54
165.9	255.74
166	255.93
166.1	256.13
166.2	256.32
166.3	256.52
166.4	256.71
166.5	256.91
166.6	257.1
166.7	257.29
166.8	257.49
166.9	257.68
167	257.88
167.1	258.07
167.2	258.27
167.3	258.46
167.4	258.66
167.5	258.85
167.6	259.05
167.7	259.24
167.8	259.44
167.9	259.63
168	259.83
168.1	260.02
168.2	260.22
168.3	260.41
168.4	260.61
168.5	260.8
168.6	261
168.7	261.19
168.8	261.39
168.9	261.58
169	261.78
169.1	261.97
169.2	262.17
169.3	262.36
169.4	262.56
169.5	262.75
169.6	262.95
169.7	263.14
169.8	263.33
169.9	263.53
170	263.72
170.1	263.92
170.2	264.11
170.3	264.31
170.4	264.5
170.5	264.7
170.6	264.89
170.7	265.09
170.8	265.28
170.9	265.48
171	265.67
171.1	265.87
171.2	266.06
171.3	266.26
171.4	266.45
171.5	266.65
171.6	266.84
171.7	267.04
171.8	267.23
171.9	267.43
172	267.62
172.1	267.82
172.2	268.01
172.3	268.21
172.4	268.4
172.5	268.59
172.6	268.79
172.7	268.98
172.8	269.18
172.9	269.37
173	269.57
173.1	269.76
173.2	269.96
173.3	270.15
173.4	270.35
173.5	270.54
173.6	270.74
173.7	270.93
173.8	271.13
173.9	271.32
174	271.52
174.1	271.71
174.2	271.91
174.3	272.1
174.4	272.3
174.5	272.49
174.6	272.68
174.7	272.88
174.8	273.07
174.9	273.27
175	273.46
175.1	273.66
175.2	273.85
175.3	274.05
175.4	274.24
175.5	274.44
175.6	274.63
175.7	274.83
175.8	275.02
175.9	275.22
176	275.41
176.1	275.61
176.2	275.8
176.3	276
176.4	276.19
176.5	276.39
176.6	276.58
176.7	276.78
176.8	276.97
176.9	277.17
177	277.36
177.1	277.56
177.2	277.75
177.3	277.95
177.4	278.14
177.5	278.34
177.6	278.53
177.7	278.73
177.8	278.92
177.9	279.12
178	279.31
178.1	279.51
178.2	279.7
178.3	279.9
178.4	280.09
178.5	280.29
178.6	280.48
178.7	280.68
178.8	280.87
178.9	281.07
179	281.26
179.1	281.46
179.2	281.65
179.3	281.85
179.4	282.04
179.5	282.24
179.6	282.43
179.7	282.63
179.8	282.82
179.9	283.02
180	283.22
180.1	283.41
180.2	283.61
180.3	283.8
180.4	284
180.5	284.19
180.6	284.39
180.7	284.58
180.8	284.78
180.9	284.97
181	285.17
181.1	285.36
181.2	285.56
181.3	285.75
181.4	285.95
181.5	286.14
181.6	286.33
181.7	286.53
181.8	286.72
181.9	286.92
182	287.11
182.1	287.31
182.2	287.5
182.3	287.69
182.4	287.89
182.5	288.08
182.6	288.27
182.7	288.47
182.8	288.66
182.9	288.85
183	289.05
183.1	289.24
183.2	289.43
183.3	289.62
183.4	289.81
183.5	290.01
183.6	290.2
183.7	290.39
183.8	290.58
183.9	290.77
184	290.96
184.1	291.15
184.2	291.34
184.3	291.53
184.4	291.73
184.5	291.92
184.6	292.11
184.7	292.29
184.8	292.48
184.9	292.67
185	292.86
185.1	293.05
185.2	293.24
185.3	293.43
185.4	293.62
185.5	293.81
185.6	294
185.7	294.18
185.8	294.37
185.9	294.56
186	294.75
186.1	294.93
186.2	295.12
186.3	295.31
186.4	295.5
186.5	295.68
186.6	295.87
186.7	296.06
186.8	296.25
186.9	296.43
187	296.62
187.1	296.81
187.2	296.99
187.3	297.18
187.4	297.37
187.5	297.55
187.6	297.74
187.7	297.93
187.8	298.11
187.9	298.3
188	298.49
188.1	298.67
188.2	298.86
188.3	299.05
188.4	299.23
188.5	299.42
188.6	299.61
188.7	299.79
188.8	299.98
188.9	300.17
189	300.35
189.1	300.54
189.2	300.72
189.3	300.91
189.4	301.1
189.5	301.28
189.6	301.47
189.7	301.66
189.8	301.84
189.9	302.03
190	302.22
190.1	302.4
190.2	302.59
190.3	302.78
190.4	302.96
190.5	303.15
190.6	303.34
190.7	303.52
190.8	303.71
190.9	303.9
191	304.09
191.1	304.27
191.2	304.46
191.3	304.65
191.4	304.83
191.5	305.02
191.6	305.21
191.7	305.39
191.8	305.58
191.9	305.77
192	305.95
192.1	306.14
192.2	306.33
192.3	306.52
192.4	306.7
192.5	306.89
192.6	307.08
192.7	307.26
192.8	307.45
192.9	307.64
193	307.82
193.1	308.01
193.2	308.2
193.3	308.39
193.4	308.57
193.5	308.76
193.6	308.95
193.7	309.13
193.8	309.32
193.9	309.51
194	309.69
194.1	309.88
194.2	310.07
194.3	310.26
194.4	310.44
194.5	310.63
194.6	310.82
194.7	311
194.8	311.19
194.9	311.38
195	311.56
195.1	311.75
195.2	311.94
195.3	312.13
195.4	312.31
195.5	312.5
195.6	312.69
195.7	312.87
195.8	313.06
195.9	313.25
196	313.43
196.1	313.62
196.2	313.81
196.3	314
196.4	314.18
196.5	314.37
196.6	314.56
196.7	314.74
196.8	314.93
196.9	315.12
197	315.3
197.1	315.49
197.2	315.68
197.3	315.87
197.4	316.05
197.5	316.24
197.6	316.43
197.7	316.61
197.8	316.8
197.9	316.99
198	317.17
198.1	317.36
198.2	317.55
198.3	317.74
198.4	317.92
198.5	318.11
198.6	318.3
198.7	318.48
198.8	318.67
198.9	318.86
199	319.04
199.1	319.23
199.2	319.42
199.3	319.6
199.4	319.79
199.5	319.98
199.6	320.17
199.7	320.35
199.8	320.54
199.9	320.73
200	320.91
200.1	321.1
200.2	321.29
200.3	321.47
200.4	321.66
200.5	321.85
200.6	322.03
200.7	322.22
200.8	322.41
200.9	322.6
201	322.78
201.1	322.97
201.2	323.16
201.3	323.34
201.4	323.53
201.5	323.72
201.6	323.9
201.7	324.09
201.8	324.28
201.9	324.47
202	324.65
202.1	324.84
202.2	325.03
202.3	325.21
202.4	325.4
202.5	325.59
202.6	325.77
202.7	325.96
202.8	326.15
202.9	326.33
203	326.52
203.1	326.71
203.2	326.9
203.3	327.08
203.4	327.27
203.5	327.46
203.6	327.64
203.7	327.83
203.8	328.02
203.9	328.2
204	328.39
204.1	328.58
204.2	328.77
204.3	328.95
204.4	329.14
204.5	329.33
204.6	329.51
204.7	329.7
204.8	329.89
204.9	330.07
205	330.26
205.1	330.45
205.2	330.63
205.3	330.82
205.4	331.01
205.5	331.2
205.6	331.38
205.7	331.57
205.8	331.76
205.9	331.94
206	332.13
206.1	332.32
206.2	332.5
206.3	332.69
206.4	332.88
206.5	333.07
206.6	333.25
206.7	333.44
206.8	333.63
206.9	333.81
207	334
207.1	334.19
207.2	334.37
207.3	334.56
207.4	334.75
207.5	334.93
207.6	335.12
207.7	335.31
207.8	335.5
207.9	335.68
208	335.87
208.1	336.06
208.2	336.24
208.3	336.43
208.4	336.62
208.5	336.8
208.6	336.99
208.7	337.18
208.8	337.37
208.9	337.55
209	337.74
209.1	337.93
209.2	338.11
209.3	338.3
209.4	338.49
209.5	338.67
209.6	338.86
209.7	339.05
209.8	339.23
209.9	339.42
210	339.61
210.1	339.8
210.2	339.98
210.3	340.17
210.4	340.36
210.5	340.54
210.6	340.73
210.7	340.92
210.8	341.1
210.9	341.29
211	341.48
211.1	341.67
211.2	341.85
211.3	342.04
211.4	342.23
211.5	342.41
211.6	342.6
211.7	342.79
211.8	342.97
211.9	343.16
212	343.35
212.1	343.53
212.2	343.72
212.3	343.91
212.4	344.1
212.5	344.28
212.6	344.47
212.7	344.66
212.8	344.84
212.9	345.03
213	345.22
213.1	345.4
213.2	345.59
213.3	345.78
213.4	345.97
213.5	346.15
213.6	346.34
213.7	346.53
213.8	346.71
213.9	346.9
214	347.09
214.1	347.27
214.2	347.46
214.3	347.65
214.4	347.83
214.5	348.02
214.6	348.21
214.7	348.4
214.8	348.58
214.9	348.77
215	348.96
215.1	349.14
215.2	349.33
215.3	349.52
215.4	349.7
215.5	349.89
215.6	350.08
215.7	350.27
215.8	350.45
215.9	350.64
216	350.83
216.1	351.01
216.2	351.2
216.3	351.39
216.4	351.57
216.5	351.76
216.6	351.95
216.7	352.13
216.8	352.32
216.9	352.51
217	352.7
217.1	352.88
217.2	353.07
217.3	353.26
217.4	353.44
217.5	353.63
217.6	353.82
217.7	354
217.8	354.19
217.9	354.38
218	354.57
218.1	354.75
218.2	354.94
218.3	355.13
218.4	355.31
218.5	355.5
218.6	355.69
218.7	355.87
218.8	356.06
218.9	356.25
219	356.43
219.1	356.62
219.2	356.81
219.3	357
219.4	357.18
219.5	357.37
219.6	357.56
219.7	357.74
219.8	357.93
219.9	358.12
220	358.3
220.1	358.49
220.2	358.68
220.3	358.87
220.4	359.05
220.5	359.24
220.6	359.43
220.7	359.61
220.8	359.8
220.9	359.99
221	360.17
221.1	360.36
221.2	360.55
221.3	360.73
221.4	360.92
221.5	361.11
221.6	361.3
221.7	361.48
221.8	361.67
221.9	361.86
222	362.04
222.1	362.23
222.2	362.42
222.3	362.6
222.4	362.79
222.5	362.98
222.6	363.17
222.7	363.35
222.8	363.54
222.9	363.73
223	363.91
223.1	364.1
223.2	364.29
223.3	364.47
223.4	364.66
223.5	364.85
223.6	365.03
223.7	365.22
223.8	365.41
223.9	365.6
224	365.78
224.1	365.97
224.2	366.16
224.3	366.34
224.4	366.53
224.5	366.72
224.6	366.9
224.7	367.09
224.8	367.28
224.9	367.47
225	367.65
225.1	367.84
225.2	368.03
225.3	368.21
225.4	368.4
225.5	368.59
225.6	368.77
225.7	368.96
225.8	369.15
225.9	369.33
226	369.52
226.1	369.71
226.2	369.9
226.3	370.08
226.4	370.27
226.5	370.46
226.6	370.64
226.7	370.83
226.8	371.02
226.9	371.2
227	371.39
227.1	371.58
227.2	371.77
227.3	371.95
227.4	372.14
227.5	372.33
227.6	372.51
227.7	372.7
227.8	372.89
227.9	373.07
228	373.26
228.1	373.45
228.2	373.63
228.3	373.82
228.4	374.01
228.5	374.2
228.6	374.38
228.7	374.57
228.8	374.76
228.9	374.94
229	375.13
229.1	375.32
229.2	375.5
229.3	375.69
229.4	375.88
229.5	376.07
229.6	376.25
229.7	376.44
229.8	376.63
229.9	376.81
230	377
230.1	377.19
230.2	377.37
230.3	377.56
230.4	377.75
230.5	377.93
230.6	378.12
230.7	378.31
230.8	378.5
230.9	378.68
231	378.87
231.1	379.06
231.2	379.24
231.3	379.43
231.4	379.62
231.5	379.8
231.6	379.99
231.7	380.18
231.8	380.37
231.9	380.55
232	380.74
232.1	380.93
232.2	381.11
232.3	381.3
232.4	381.49
232.5	381.67
232.6	381.86
232.7	382.05
232.8	382.23
232.9	382.42
233	382.61
233.1	382.8
233.2	382.98
233.3	383.17
233.4	383.36
233.5	383.54
233.6	383.73
233.7	383.92
233.8	384.1
233.9	384.29
234	384.48
234.1	384.67
234.2	384.85
234.3	385.04
234.4	385.23
234.5	385.41
234.6	385.6
234.7	385.79
234.8	385.97
234.9	386.16
235	386.35
235.1	386.53
235.2	386.72
235.3	386.91
235.4	387.1
235.5	387.28
235.6	387.47
235.7	387.66
235.8	387.84
235.9	388.03
236	388.22
236.1	388.4
236.2	388.59
236.3	388.78
236.4	388.97
236.5	389.15
236.6	389.34
236.7	389.53
236.8	389.71
236.9	389.9
237	390.09
237.1	390.27
237.2	390.46
237.3	390.65
237.4	390.83
237.5	391.02
237.6	391.21
237.7	391.4
237.8	391.58
237.9	391.77
238	391.96
238.1	392.14
238.2	392.33
238.3	392.52
238.4	392.7
238.5	392.89
238.6	393.08
238.7	393.27
238.8	393.45
238.9	393.64
239	393.83
239.1	394.01
239.2	394.2
239.3	394.39
239.4	394.57
239.5	394.76
239.6	394.95
239.7	395.14
239.8	395.32
239.9	395.51
240	395.7
240.1	395.88
240.2	396.07
240.3	396.26
240.4	396.44
240.5	396.63
240.6	396.82
240.7	397
240.8	397.19
240.9	397.38
241	397.57
241.1	397.75
241.2	397.94
241.3	398.13
241.4	398.31
241.5	398.5
241.6	398.69
241.7	398.87
241.8	399.06
241.9	399.25
242	399.43
242.1	399.62
242.2	399.81
242.3	400
242.4	400.18
242.5	400.37
242.6	400.56
242.7	400.74
242.8	400.93
242.9	401.12
243	401.3
243.1	401.49
243.2	401.68
243.3	401.86
243.4	402.05
243.5	402.24
243.6	402.42
243.7	402.61
243.8	402.8
243.9	402.99
244	403.17
244.1	403.36
244.2	403.55
244.3	403.73
244.4	403.92
244.5	404.11
244.6	404.29
244.7	404.48
244.8	404.67
244.9	404.85
245	405.04
245.1	405.23
245.2	405.42
245.3	405.6
245.4	405.79
245.5	405.98
245.6	406.16
245.7	406.35
245.8	406.54
245.9	406.72
246	406.91
246.1	407.1
246.2	407.29
246.3	407.47
246.4	407.66
246.5	407.85
246.6	408.03
246.7	408.22
246.8	408.41
246.9	408.6
247	408.78
247.1	408.97
247.2	409.16
247.3	409.34
247.4	409.53
247.5	409.72
247.6	409.91
247.7	410.09
247.8	410.28
247.9	410.47
248	410.66
248.1	410.84
248.2	411.03
248.3	411.22
248.4	411.41
248.5	411.59
248.6	411.78
248.7	411.97
248.8	412.15
248.9	412.34
249	412.53
249.1	412.72
249.2	412.9
249.3	413.09
249.4	413.28
249.5	413.47
249.6	413.65
249.7	413.84
249.8	414.03
249.9	414.21
250	414.4
250.1	414.59
250.2	414.78
250.3	414.96
250.4	415.15
250.5	415.34
250.6	415.52
250.7	415.71
250.8	415.9
250.9	416.08
251	416.27
251.1	416.45
251.2	416.64
251.3	416.83
251.4	417.01
251.5	417.2
251.6	417.38
251.7	417.57
251.8	417.75
251.9	417.94
252	418.12
252.1	418.31
252.2	418.49
252.3	418.68
252.4	418.86
252.5	419.05
252.6	419.23
252.7	419.42
252.8	419.6
252.9	419.78
253	419.97
253.1	420.15
253.2	420.33
253.3	420.52
253.4	420.7
253.5	420.88
253.6	421.07
253.7	421.25
253.8	421.43
253.9	421.61
254	421.79
254.1	421.98
254.2	422.16
254.3	422.34
254.4	422.52
254.5	422.7
254.6	422.88
254.7	423.06
254.8	423.25
254.9	423.43
255	423.61
255.1	423.79
255.2	423.97
255.3	424.15
255.4	424.33
255.5	424.51
255.6	424.69
255.7	424.87
255.8	425.05
255.9	425.23
256	425.41
256.1	425.59
256.2	425.77
256.3	425.95
256.4	426.13
256.5	426.31
256.6	426.49
256.7	426.67
256.8	426.85
256.9	427.03
257	427.21
257.1	427.39
257.2	427.57
257.3	427.75
257.4	427.93
257.5	428.11
257.6	428.29
257.7	428.46
257.8	428.64
257.9	428.82
258	429
258.1	429.18
258.2	429.36
258.3	429.54
258.4	429.72
258.5	429.9
258.6	430.08
258.7	430.26
258.8	430.44
258.9	430.62
259	430.8
259.1	430.98
259.2	431.16
259.3	431.34
259.4	431.52
259.5	431.7
259.6	431.88
259.7	432.06
259.8	432.24
259.9	432.42
260	432.6
260.1	432.78
260.2	432.96
260.3	433.14
260.4	433.32
260.5	433.5
260.6	433.68
260.7	433.86
260.8	434.04
260.9	434.22
261	434.4
261.1	434.58
261.2	434.76
261.3	434.94
261.4	435.12
261.5	435.3
261.6	435.48
261.7	435.66
261.8	435.84
261.9	436.02
262	436.2
262.1	436.38
262.2	436.56
262.3	436.74
262.4	436.92
262.5	437.1
262.6	437.28
262.7	437.46
262.8	437.64
262.9	437.82
263	438
263.1	438.18
263.2	438.36
263.3	438.54
263.4	438.72
263.5	438.9
263.6	439.08
263.7	439.26
263.8	439.44
263.9	439.62
264	439.8
264.1	439.98
264.2	440.16
264.3	440.34
264.4	440.52
264.5	440.7
264.6	440.88
264.7	441.06
264.8	441.24
264.9	441.42
265	441.6
265.1	441.78
265.2	441.96
265.3	442.14
265.4	442.32
265.5	442.5
265.6	442.68
265.7	442.86
265.8	443.04
265.9	443.22
266	443.4
266.1	443.58
266.2	443.76
266.3	443.94
266.4	444.12
266.5	444.3
266.6	444.48
266.7	444.66
266.8	444.84
266.9	445.02
267	445.2
267.1	445.38
267.2	445.56
267.3	445.74
267.4	445.92
267.5	446.1
267.6	446.28
267.7	446.46
267.8	446.64
267.9	446.82
268	447
268.1	447.18
268.2	447.36
268.3	447.54
268.4	447.72
268.5	447.9
268.6	448.08
268.7	448.26
268.8	448.44
268.9	448.62
269	448.8
269.1	448.98
269.2	449.16
269.3	449.34
269.4	449.52
269.5	449.7
269.6	449.88
269.7	450.06
269.8	450.24
269.9	450.42
270	450.6
270.1	450.78
270.2	450.96
270.3	451.14
270.4	451.32
270.5	451.5
270.6	451.68
270.7	451.86
270.8	452.04
270.9	452.22
271	452.4
271.1	452.58
271.2	452.76
271.3	452.94
271.4	453.12
271.5	453.3
271.6	453.48
271.7	453.66
271.8	453.84
271.9	454.02
272	454.2
272.1	454.38
272.2	454.56
272.3	454.74
272.4	454.92
272.5	455.1
272.6	455.28
272.7	455.46
272.8	455.64
272.9	455.82
273	456
273.1	456.18
273.2	456.36
273.3	456.54
273.4	456.72
273.5	456.9
273.6	457.08
273.7	457.26
273.8	457.44
273.9	457.62
274	457.8
274.1	457.98
274.2	458.16
274.3	458.34
274.4	458.52
274.5	458.7
274.6	458.88
274.7	459.06
274.8	459.24
274.9	459.42
275	459.6
275.1	459.78
275.2	459.96
275.3	460.14
275.4	460.32
275.5	460.5
275.6	460.68
275.7	460.86
275.8	461.04
275.9	461.22
276	461.4
276.1	461.58
276.2	461.76
276.3	461.94
276.4	462.12
276.5	462.3
276.6	462.48
276.7	462.66
276.8	462.84
276.9	463.02
277	463.2
277.1	463.38
277.2	463.56
277.3	463.74
277.4	463.92
277.5	464.1
277.6	464.28
277.7	464.46
277.8	464.64
277.9	464.82
278	465
278.1	465.18
278.2	465.36
278.3	465.54
278.4	465.72
278.5	465.9
278.6	466.08
278.7	466.26
278.8	466.44
278.9	466.62
279	466.8
279.1	466.98
279.2	467.16
279.3	467.34
279.4	467.52
279.5	467.7
279.6	467.88
279.7	468.06
279.8	468.24
279.9	468.42
280	468.6
280.1	468.78
280.2	468.96
280.3	469.14
280.4	469.32
280.5	469.5
280.6	469.68
280.7	469.86
280.8	470.04
280.9	470.22
281	470.4
281.1	470.58
281.2	470.76
281.3	470.94
281.4	471.12
281.5	471.3
281.6	471.48
281.7	471.66
281.8	471.84
281.9	472.02
282	472.2
282.1	472.38
282.2	472.56
282.3	472.74
282.4	472.92
282.5	473.1
282.6	473.28
282.7	473.46
282.8	473.64
282.9	473.82
283	474
283.1	474.18
283.2	474.36
283.3	474.54
283.4	474.72
283.5	474.9
283.6	475.08
283.7	475.26
283.8	475.44
283.9	475.62
284	475.8
284.1	475.98
284.2	476.16
284.3	476.34
284.4	476.52
284.5	476.7
284.6	476.88
284.7	477.06
284.8	477.24
284.9	477.42
285	477.6
285.1	477.78
285.2	477.96
285.3	478.14
285.4	478.32
285.5	478.5
285.6	478.68
285.7	478.86
285.8	479.04
285.9	479.22
286	479.4
286.1	479.58
286.2	479.76
286.3	479.94
286.4	480.12
286.5	480.3
286.6	480.48
286.7	480.66
286.8	480.84
286.9	481.02
287	481.2
287.1	481.38
287.2	481.56
287.3	481.74
287.4	481.92
287.5	482.1
287.6	482.28
287.7	482.46
287.8	482.64
287.9	482.83
288	483.01
288.1	483.19
288.2	483.37
288.3	483.55
288.4	483.73
288.5	483.91
288.6	484.09
288.7	484.27
288.8	484.45
288.9	484.63
289	484.81
289.1	484.99
289.2	485.17
289.3	485.35
289.4	485.53
289.5	485.71
289.6	485.89
289.7	486.07
289.8	486.25
289.9	486.43
290	486.61
290.1	486.79
290.2	486.97
290.3	487.15
290.4	487.33
290.5	487.51
290.6	487.69
290.7	487.87
290.8	488.05
290.9	488.23
291	488.41
291.1	488.58
291.2	488.76
291.3	488.94
291.4	489.12
291.5	489.3
291.6	489.48
291.7	489.66
291.8	489.84
291.9	490.01
292	490.19
292.1	490.37
292.2	490.55
292.3	490.73
292.4	490.91
292.5	491.08
292.6	491.26
292.7	491.44
292.8	491.62
292.9	491.79
293	491.97
293.1	492.15
293.2	492.33
293.3	492.51
293.4	492.68
293.5	492.86
293.6	493.04
293.7	493.22
293.8	493.39
293.9	493.57
294	493.75
294.1	493.93
294.2	494.11
294.3	494.28
294.4	494.46
294.5	494.64
294.6	494.82
294.7	495
294.8	495.18
294.9	495.36
295	495.54
295.1	495.72
295.2	495.9
295.3	496.08
295.4	496.26
295.5	496.44
295.6	496.62
295.7	496.8
295.8	496.98
295.9	497.17
296	497.35
296.1	497.53
296.2	497.72
296.3	497.9
296.4	498.09
296.5	498.27
296.6	498.46
296.7	498.64
296.8	498.83
296.9	499.02
297	499.2
297.1	499.39
297.2	499.58
297.3	499.77
297.4	499.96
297.5	500.15
297.6	500.34
297.7	500.53
297.8	500.72
297.9	500.91
298	501.11
298.1	501.3
298.2	501.49
298.3	501.68
298.4	501.88
298.5	502.07
298.6	502.26
298.7	502.45
298.8	502.64
298.9	502.84
299	503.03
299.1	503.22
299.2	503.41
299.3	503.6
299.4	503.79
299.5	503.98
299.6	504.16
299.7	504.35
299.8	504.54
299.9	504.72
300	504.9
300.1	505.08
300.2	505.26
300.3	505.44
300.4	505.61
300.5	505.79
300.6	505.96
300.7	506.13
300.8	506.29
300.9	506.45
301	506.61
301.1	506.77
301.2	506.92
301.3	507.07
301.4	507.22
301.5	507.36
301.6	507.5
301.7	507.64
301.8	507.77
301.9	507.9
302	508.02
302.1	508.14
302.2	508.25
302.3	508.36
302.4	508.47
302.5	508.57
302.6	508.66
302.7	508.75
302.8	508.84
302.9	508.92
303	508.99
303.1	509.07
303.2	509.13
303.3	509.19
303.4	509.25
303.5	509.3
303.6	509.34
303.7	509.39
303.8	509.42
303.9	509.46
304	509.48
304.1	509.51
304.2	509.53
304.3	509.54
304.4	509.55
304.5	509.56
304.6	509.56
304.7	509.56
304.8	509.56
304.9	509.55
305	509.54
305.1	509.53
305.2	509.51
305.3	509.49
305.4	509.47
305.5	509.44
305.6	509.42
305.7	509.39
305.8	509.36
305.9	509.32
306	509.29
306.1	509.25
306.2	509.22
306.3	509.18
306.4	509.14
306.5	509.1
306.6	509.05
306.7	509.01
306.8	508.97
306.9	508.92
307	508.88
307.1	508.83
307.2	508.79
307.3	508.74
307.4	508.69
307.5	508.65
307.6	508.6
307.7	508.56
307.8	508.51
307.9	508.46
308	508.42
308.1	508.37
308.2	508.33
308.3	508.28
308.4	508.24
308.5	508.19
308.6	508.15
308.7	508.11
308.8	508.06
308.9	508.02
309	507.98
309.1	507.94
309.2	507.9
309.3	507.86
309.4	507.82
309.5	507.78
309.6	507.74
309.7	507.7
309.8	507.66
309.9	507.62
310	507.59
310.1	507.55
310.2	507.51
310.3	507.48
310.4	507.44
310.5	507.41
310.6	507.37
310.7	507.34
310.8	507.3
310.9	507.27
311	507.23
311.1	507.2
311.2	507.17
311.3	507.14
311.4	507.1
311.5	507.07
311.6	507.04
311.7	507.01
311.8	506.97
311.9	506.94
312	506.91
312.1	506.88
312.2	506.85
312.3	506.82
312.4	506.78
312.5	506.75
312.6	506.72
312.7	506.69
312.8	506.66
312.9	506.63
313	506.6
313.1	506.56
313.2	506.53
313.3	506.5
313.4	506.47
313.5	506.44
313.6	506.41
313.7	506.37
313.8	506.34
313.9	506.31
314	506.28
314.1	506.25
314.2	506.21
314.3	506.18
314.4	506.15
314.5	506.12
314.6	506.08
314.7	506.05
314.8	506.02
314.9	505.99
315	505.95
315.1	505.92
315.2	505.89
315.3	505.85
315.4	505.82
315.5	505.79
315.6	505.75
315.7	505.72
315.8	505.69
315.9	505.65
316	505.62
316.1	505.59
316.2	505.55
316.3	505.52
316.4	505.49
316.5	505.45
316.6	505.42
316.7	505.38
316.8	505.35
316.9	505.32
317	505.28
317.1	505.25
317.2	505.21
317.3	505.18
317.4	505.15
317.5	505.11
317.6	505.08
317.7	505.04
317.8	505.01
317.9	504.97
318	504.94
318.1	504.91
318.2	504.87
318.3	504.84
318.4	504.8
318.5	504.77
318.6	504.74
318.7	504.7
318.8	504.67
318.9	504.63
319	504.6
319.1	504.57
319.2	504.53
319.3	504.5
319.4	504.46
319.5	504.43
319.6	504.4
319.7	504.36
319.8	504.33
319.9	504.29
320	504.26
320.1	504.23
320.2	504.19
320.3	504.16
320.4	504.12
320.5	504.09
320.6	504.06
320.7	504.02
320.8	503.99
320.9	503.95
321	503.92
321.1	503.89
321.2	503.85
321.3	503.82
321.4	503.79
321.5	503.75
321.6	503.72
321.7	503.68
321.8	503.65
321.9	503.62
322	503.58
322.1	503.55
322.2	503.52
322.3	503.48
322.4	503.45
322.5	503.41
322.6	503.38
322.7	503.35
322.8	503.31
322.9	503.28
323	503.25
323.1	503.21
323.2	503.18
323.3	503.14
323.4	503.11
323.5	503.08
323.6	503.04
323.7	503.01
323.8	502.98
323.9	502.94
324	502.91
324.1	502.87
324.2	502.84
324.3	502.81
324.4	502.77
324.5	502.74
324.6	502.71
324.7	502.67
324.8	502.64
324.9	502.61
325	502.57
325.1	502.54
325.2	502.5
325.3	502.47
325.4	502.44
325.5	502.4
325.6	502.37
325.7	502.34
325.8	502.3
325.9	502.27
326	502.23
326.1	502.2
326.2	502.17
326.3	502.13
326.4	502.1
326.5	502.07
326.6	502.03
326.7	502
326.8	501.96
326.9	501.93
327	501.9
327.1	501.86
327.2	501.83
327.3	501.8
327.4	501.76
327.5	501.73
327.6	501.69
327.7	501.66
327.8	501.63
327.9	501.59
328	501.56
328.1	501.52
328.2	501.49
328.3	501.46
328.4	501.42
328.5	501.39
328.6	501.36
328.7	501.32
328.8	501.29
328.9	501.25
329	501.22
329.1	501.19
329.2	501.15
329.3	501.12
329.4	501.09
329.5	501.05
329.6	501.02
329.7	500.98
329.8	500.95
329.9	500.92
330	500.88
330.1	500.85
330.2	500.82
330.3	500.78
330.4	500.75
330.5	500.71
330.6	500.68
330.7	500.65
330.8	500.61
330.9	500.58
331	500.55
331.1	500.51
331.2	500.48
331.3	500.44
331.4	500.41
331.5	500.38
331.6	500.34
331.7	500.31
331.8	500.28
331.9	500.24
332	500.21
332.1	500.17
332.2	500.14
332.3	500.11
332.4	500.07
332.5	500.04
332.6	500.01
332.7	499.97
332.8	499.94
332.9	499.9
333	499.87
333.1	499.84
333.2	499.8
333.3	499.77
333.4	499.74
333.5	499.7
333.6	499.67
333.7	499.63
333.8	499.6
333.9	499.57
334	499.53
334.1	499.5
334.2	499.46
334.3	499.43
334.4	499.4
334.5	499.36
334.6	499.33
334.7	499.3
334.8	499.26
334.9	499.23
335	499.19
335.1	499.16
335.2	499.13
335.3	499.09
335.4	499.06
335.5	499.03
335.6	498.99
335.7	498.96
335.8	498.92
335.9	498.89
336	498.86
336.1	498.82
336.2	498.79
336.3	498.76
336.4	498.72
336.5	498.69
336.6	498.65
336.7	498.62
336.8	498.59
336.9	498.55
337	498.52
337.1	498.49
337.2	498.45
337.3	498.42
337.4	498.38
337.5	498.35
337.6	498.32
337.7	498.28
337.8	498.25
337.9	498.22
338	498.18
338.1	498.15
338.2	498.11
338.3	498.08
338.4	498.05
338.5	498.01
338.6	497.98
338.7	497.95
338.8	497.91
338.9	497.88
339	497.84
339.1	497.81
339.2	497.78
339.3	497.74
339.4	497.71
339.5	497.68
339.6	497.64
339.7	497.61
339.8	497.57
339.9	497.54
340	497.51
340.1	497.47
340.2	497.44
340.3	497.41
340.4	497.37
340.5	497.34
340.6	497.3
340.7	497.27
340.8	497.24
340.9	497.2
341	497.17
341.1	497.14
341.2	497.1
341.3	497.07
341.4	497.03
341.5	497
341.6	496.97
341.7	496.93
341.8	496.9
341.9	496.86
342	496.83
342.1	496.8
342.2	496.76
342.3	496.73
342.4	496.7
342.5	496.66
342.6	496.63
342.7	496.59
342.8	496.56
342.9	496.53
343	496.49
343.1	496.46
343.2	496.43
343.3	496.39
343.4	496.36
343.5	496.32
343.6	496.29
343.7	496.26
343.8	496.22
343.9	496.19
344	496.16
344.1	496.12
344.2	496.09
344.3	496.05
344.4	496.02
344.5	495.99
344.6	495.95
344.7	495.92
344.8	495.89
344.9	495.85
345	495.82
345.1	495.78
345.2	495.75
345.3	495.72
345.4	495.68
345.5	495.65
345.6	495.62
345.7	495.58
345.8	495.55
345.9	495.51
346	495.48
346.1	495.45
346.2	495.41
346.3	495.38
346.4	495.35
346.5	495.31
346.6	495.28
346.7	495.24
346.8	495.21
346.9	495.18
347	495.14
347.1	495.11
347.2	495.08
347.3	495.04
347.4	495.01
347.5	494.97
347.6	494.94
347.7	494.91
347.8	494.87
347.9	494.84
348	494.81
348.1	494.77
348.2	494.74
348.3	494.7
348.4	494.67
348.5	494.64
348.6	494.6
348.7	494.57
348.8	494.54
348.9	494.5
349	494.47
349.1	494.43
349.2	494.4
349.3	494.37
349.4	494.33
349.5	494.3
349.6	494.26
349.7	494.23
349.8	494.2
349.9	494.16
350	494.13
350.1	494.1
350.2	494.06
350.3	494.03
350.4	493.99
350.5	493.96
350.6	493.93
350.7	493.89
350.8	493.86
350.9	493.83
351	493.79
351.1	493.76
351.2	493.72
351.3	493.69
351.4	493.66
351.5	493.62
351.6	493.59
351.7	493.56
351.8	493.52
351.9	493.49
352	493.45
352.1	493.42
352.2	493.39
352.3	493.35
352.4	493.32
352.5	493.29
352.6	493.25
352.7	493.22
352.8	493.18
352.9	493.15
353	493.12
353.1	493.08
353.2	493.05
353.3	493.02
353.4	492.98
353.5	492.95
353.6	492.91
353.7	492.88
353.8	492.85
353.9	492.81
354	492.78
354.1	492.75
354.2	492.71
354.3	492.68
354.4	492.64
354.5	492.61
354.6	492.58
354.7	492.54
354.8	492.51
354.9	492.48
355	492.44
355.1	492.41
355.2	492.37
355.3	492.34
355.4	492.31
355.5	492.27
355.6	492.24
355.7	492.21
355.8	492.17
355.9	492.14
356	492.1
356.1	492.07
356.2	492.04
356.3	492
356.4	491.97
356.5	491.94
356.6	491.9
356.7	491.87
356.8	491.83
356.9	491.8
357	491.77
357.1	491.73
357.2	491.7
357.3	491.66
357.4	491.63
357.5	491.6
357.6	491.56
357.7	491.53
357.8	491.5
357.9	491.46
358	491.43
358.1	491.39
358.2	491.36
358.3	491.33
358.4	491.29
358.5	491.26
358.6	491.23
358.7	491.19
358.8	491.16
358.9	491.12
359	491.09
359.1	491.06
359.2	491.02
359.3	490.99
359.4	490.96
359.5	490.92
359.6	490.89
359.7	490.85
359.8	490.82
359.9	490.79
360	490.75
360.1	490.72
360.2	490.69
360.3	490.65
360.4	490.62
360.5	490.58
360.6	490.55
360.7	490.52
360.8	490.48
360.9	490.45
361	490.42
361.1	490.38
361.2	490.35
361.3	490.31
361.4	490.28
361.5	490.25
361.6	490.21
361.7	490.18
361.8	490.15
361.9	490.11
362	490.08
362.1	490.04
362.2	490.01
362.3	489.98
362.4	489.94
362.5	489.91
362.6	489.88
362.7	489.84
362.8	489.81
362.9	489.77
363	489.74
363.1	489.71
363.2	489.67
363.3	489.64
363.4	489.61
363.5	489.57
363.6	489.54
363.7	489.5
363.8	489.47
363.9	489.44
364	489.4
364.1	489.37
364.2	489.34
364.3	489.3
364.4	489.27
364.5	489.23
364.6	489.2
364.7	489.17
364.8	489.13
364.9	489.1
365	489.06
365.1	489.03
365.2	489
365.3	488.96
365.4	488.93
365.5	488.9
365.6	488.86
365.7	488.83
365.8	488.79
365.9	488.76
366	488.73
366.1	488.69
366.2	488.66
366.3	488.63
366.4	488.59
366.5	488.56
366.6	488.52
366.7	488.49
366.8	488.46
366.9	488.42
367	488.39
367.1	488.36
367.2	488.32
367.3	488.29
367.4	488.25
367.5	488.22
367.6	488.19
367.7	488.15
367.8	488.12
367.9	488.09
368	488.05
368.1	488.02
368.2	487.98
368.3	487.95
368.4	487.92
368.5	487.88
368.6	487.85
368.7	487.82
368.8	487.78
368.9	487.75
369	487.71
369.1	487.68
369.2	487.65
369.3	487.61
369.4	487.58
369.5	487.55
369.6	487.51
369.7	487.48
369.8	487.44
369.9	487.41
370	487.38
370.1	487.34
370.2	487.31
370.3	487.28
370.4	487.24
370.5	487.21
370.6	487.17
370.7	487.14
370.8	487.11
370.9	487.07
371	487.04
371.1	487.01
371.2	486.97
371.3	486.94
371.4	486.9
371.5	486.87
371.6	486.84
371.7	486.8
371.8	486.77
371.9	486.74
372	486.7
372.1	486.67
372.2	486.63
372.3	486.6
372.4	486.57
372.5	486.53
372.6	486.5
372.7	486.46
372.8	486.43
372.9	486.4
373	486.36
373.1	486.33
373.2	486.3
373.3	486.26
373.4	486.23
373.5	486.19
373.6	486.16
373.7	486.13
373.8	486.09
373.9	486.06
374	486.03
374.1	485.99
374.2	485.96
374.3	485.92
374.4	485.89
374.5	485.86
374.6	485.82
374.7	485.79
374.8	485.76
374.9	485.72
375	485.69
375.1	485.65
375.2	485.62
375.3	485.59
375.4	485.55
375.5	485.52
375.6	485.49
375.7	485.45
375.8	485.42
375.9	485.38
376	485.35
376.1	485.32
376.2	485.28
376.3	485.25
376.4	485.22
376.5	485.18
376.6	485.15
376.7	485.11
376.8	485.08
376.9	485.05
377	485.01
377.1	484.98
377.2	484.95
377.3	484.91
377.4	484.88
377.5	484.84
377.6	484.81
377.7	484.78
377.8	484.74
377.9	484.71
378	484.68
378.1	484.64
378.2	484.61
378.3	484.57
378.4	484.54
378.5	484.51
378.6	484.47
378.7	484.44
378.8	484.41
378.9	484.37
379	484.34
379.1	484.3
379.2	484.27
379.3	484.24
379.4	484.2
379.5	484.17
379.6	484.14
379.7	484.1
379.8	484.07
379.9	484.03
380	484
